40
     1    49    35    83    75    64    20    84    31    88    27    88    21    32    12    20    26    64     6    11    54     2    21    94    44    19    45     6    61    41    45    86    98    45    66    77    76    64    31    25
    10     4     7     3     6     7     5    10     5    10     2     1     7     7     2     8     3     8     8     8    10     1     1     3     6     7     2     4     6     5     7     4     4     9     5     6     1     9     9     4
  1452  1565  1588  1319  1436  1434  1573  1427  1593  1432  1428  1549  1565  1312  1614  1362  1643  1536  1372  1490  1631  1338  1336  1487  1361  1363  1583  1652  1396  1376  1319  1369  1341  1434  1319  1296  1644  1418  1421  1338
